32      4       
10      10      10      10      
0       0       0       0       0       6       2       16      28      29      30      31      
7       1       1       0       1       2       3       27      
7       4       7       0       5       2       4       25      
4       3       4       1       0       2       5       24      
1       2       0       2       8       3       6       22      23      
6       0       2       3       3       1       7       
1       6       0       4       3       1       8       
6       2       0       7       3       3       9       20      21      
8       0       6       5       3       2       10      19      
1       0       4       7       2       2       11      18      
4       0       3       2       8       1       12      
8       5       5       0       3       1       13      
1       4       8       3       0       1       14      
10      0       2       5       5       1       15      
5       2       3       0       6       1       17      
6       5       5       0       5       1       26      
7       7       0       6       3       1       32      
10      0       2       2       4       1       32      
4       5       3       6       0       1       32      
3       0       7       6       3       1       32      
9       7       3       6       0       1       32      
7       7       0       3       6       1       32      
1       4       5       5       0       1       32      
10      3       4       0       1       1       32      
1       0       2       3       6       1       32      
7       2       0       2       5       1       32      
1       0       4       2       3       1       32      
10      5       5       0       3       1       32      
9       3       0       4       3       1       32      
1       4       4       0       4       1       32      
10      3       3       0       4       1       32      
0       0       0       0       0       0       
